NAME : tsp_125_sol.txt
COMMENT : OR-Tools Guided Local Search
TYPE : TOUR
DIMENSION : 50
COST : 5940
STATUS : ROUTING_SUCCESS
GAP : 0.00% (Reference Solution)
TOUR_SECTION
1
46
43
2
7
18
26
36
8
15
45
19
37
25
5
44
35
50
14
9
49
20
10
42
47
38
31
11
24
41
34
6
48
30
29
16
28
3
13
39
17
12
33
40
4
23
22
21
32
27
-1
